WARNING: for repeatability, setting FPU to use double precision
============================[ Problem Statistics ]=============================
|                                                                             |
|  Number of variables:        224760                                         |
|  Number of clauses:          527020                                         |
|  Parse time:                   0.17 s                                       |
|                                                                             |
============================[ Search Statistics ]==============================
| Conflicts |          ORIGINAL         |          LEARNT          | Progress |
|           |    Vars  Clauses Literals |    Limit  Clauses Lit/Cl |          |
===============================================================================
|       100 |  125150   506531  1137012 |   185728      100     15 | 44.318 % |
|       250 |  125150   506531  1137012 |   204300      250     26 | 44.318 % |
|       475 |  125150   506531  1137012 |   224730      475     41 | 44.318 % |
===============================================================================
restarts              : 6
conflicts             : 651            (1205 /sec)
decisions             : 14139          (0.00 % random) (26182 /sec)
propagations          : 2441870        (4521705 /sec)
conflict literals     : 22568          (3.78 % deleted)
Memory used           : 57.00 MB
CPU time              : 0.540033 s

SATISFIABLE
